data/lp_files/q3/60_7.lp
\ Model foo
\ LP format - for model browsing. Use MPS format to capture full model detail.
Minimize
  z
Subject To
 allocateEach[1]: x[1,1] + x[2,1] + x[3,1] = 1
 allocateEach[2]: x[1,2] + x[2,2] + x[3,2] = 1
 allocateEach[3]: x[1,3] + x[2,3] + x[3,3] = 1
 allocateEach[4]: x[1,4] + x[2,4] + x[3,4] = 1
 allocateEach[5]: x[1,5] + x[2,5] + x[3,5] = 1
 allocateEach[6]: x[1,6] + x[2,6] + x[3,6] = 1
 allocateEach[7]: x[1,7] + x[2,7] + x[3,7] = 1
 allocateEach[8]: x[1,8] + x[2,8] + x[3,8] = 1
 allocateEach[9]: x[1,9] + x[2,9] + x[3,9] = 1
 allocateEach[10]: x[1,10] + x[2,10] + x[3,10] = 1
 allocateEach[11]: x[1,11] + x[2,11] + x[3,11] = 1
 allocateEach[12]: x[1,12] + x[2,12] + x[3,12] = 1
 allocateEach[13]: x[1,13] + x[2,13] + x[3,13] = 1
 allocateEach[14]: x[1,14] + x[2,14] + x[3,14] = 1
 allocateEach[15]: x[1,15] + x[2,15] + x[3,15] = 1
 allocateEach[16]: x[1,16] + x[2,16] + x[3,16] = 1
 allocateEach[17]: x[1,17] + x[2,17] + x[3,17] = 1
 allocateEach[18]: x[1,18] + x[2,18] + x[3,18] = 1
 allocateEach[19]: x[1,19] + x[2,19] + x[3,19] = 1
 allocateEach[20]: x[1,20] + x[2,20] + x[3,20] = 1
 allocateAllCash: cashProportion[1] + cashProportion[2] + cashProportion[3]
   = 1
 findWorstP[1,2]: z + 0.0591418517313777 cashProportion[1]
   - 0.0591418517313777 cashProportion[2] + 0.0310199012331076 x[1,1]
   + 0.00970912065923451 x[1,2] + 0.0193985273678919 x[1,3]
   + 0.0823254576100778 x[1,4] + 0.0959675114094489 x[1,5]
   + 0.0829267331026801 x[1,6] + 0.0522912539058265 x[1,7]
   + 0.0785699500251353 x[1,8] + 0.004149786596485 x[1,9]
   + 0.0486540300243467 x[1,10] + 0.0683186957250298 x[1,11]
   + 0.0385112024524155 x[1,12] + 0.00378507851080817 x[1,13]
   + 6.1113246789090301e-04 x[1,14] + 0.00915713 x[1,15]
   + 0.0936215512907709 x[1,16] + 0.0165597184847858 x[1,17]
   + 0.07147292781737 x[1,18] + 0.0493045903933919 x[1,19]
   + 0.0845038491488502 x[1,20] - 0.0310199012331076 x[2,1]
   - 0.00970912065923451 x[2,2] - 0.0193985273678919 x[2,3]
   - 0.0823254576100778 x[2,4] - 0.0959675114094489 x[2,5]
   - 0.0829267331026801 x[2,6] - 0.0522912539058265 x[2,7]
   - 0.0785699500251353 x[2,8] - 0.004149786596485 x[2,9]
   - 0.0486540300243467 x[2,10] - 0.0683186957250298 x[2,11]
   - 0.0385112024524155 x[2,12] - 0.00378507851080817 x[2,13]
   - 6.1113246789090301e-04 x[2,14] - 0.00915713 x[2,15]
   - 0.0936215512907709 x[2,16] - 0.0165597184847858 x[2,17]
   - 0.07147292781737 x[2,18] - 0.0493045903933919 x[2,19]
   - 0.0845038491488502 x[2,20] >= 0
 findWorstP[1,3]: z + 0.0591418517313777 cashProportion[1]
   - 0.0591418517313777 cashProportion[3] + 0.0310199012331076 x[1,1]
   + 0.00970912065923451 x[1,2] + 0.0193985273678919 x[1,3]
   + 0.0823254576100778 x[1,4] + 0.0959675114094489 x[1,5]
   + 0.0829267331026801 x[1,6] + 0.0522912539058265 x[1,7]
   + 0.0785699500251353 x[1,8] + 0.004149786596485 x[1,9]
   + 0.0486540300243467 x[1,10] + 0.0683186957250298 x[1,11]
   + 0.0385112024524155 x[1,12] + 0.00378507851080817 x[1,13]
   + 6.1113246789090301e-04 x[1,14] + 0.00915713 x[1,15]
   + 0.0936215512907709 x[1,16] + 0.0165597184847858 x[1,17]
   + 0.07147292781737 x[1,18] + 0.0493045903933919 x[1,19]
   + 0.0845038491488502 x[1,20] - 0.0310199012331076 x[3,1]
   - 0.00970912065923451 x[3,2] - 0.0193985273678919 x[3,3]
   - 0.0823254576100778 x[3,4] - 0.0959675114094489 x[3,5]
   - 0.0829267331026801 x[3,6] - 0.0522912539058265 x[3,7]
   - 0.0785699500251353 x[3,8] - 0.004149786596485 x[3,9]
   - 0.0486540300243467 x[3,10] - 0.0683186957250298 x[3,11]
   - 0.0385112024524155 x[3,12] - 0.00378507851080817 x[3,13]
   - 6.1113246789090301e-04 x[3,14] - 0.00915713 x[3,15]
   - 0.0936215512907709 x[3,16] - 0.0165597184847858 x[3,17]
   - 0.07147292781737 x[3,18] - 0.0493045903933919 x[3,19]
   - 0.0845038491488502 x[3,20] >= 0
 findWorstP[2,1]: z - 0.0633988102156616 cashProportion[1]
   + 0.0633988102156616 cashProportion[2] - 0.0459958368114625 x[1,1]
   - 8.45317e-05 x[1,2] - 0.0873107281353353 x[1,3]
   - 0.0065512103889517 x[1,4] - 0.0531387694290937 x[1,5]
   - 0.0844472152072613 x[1,6] - 0.00250425300351863 x[1,7]
   - 8.6645040628070889e-04 x[1,8] - 0.0782446982744957 x[1,9]
   - 0.1052737243631061 x[1,10] - 0.00334957047306079 x[1,11]
   - 0.0932068174853919 x[1,12] - 0.067572565221526 x[1,13]
   - 0.00271558237090417 x[1,14] - 0.0797768361880409 x[1,15]
   - 0.0500005283234185 x[1,16] - 0.0698549223892898 x[1,17]
   - 0.0367290440516066 x[1,18] - 0.0178678980124473 x[1,19]
   - 0.0511100075021925 x[1,20] + 0.0459958368114625 x[2,1]
   + 8.45317e-05 x[2,2] + 0.0873107281353353 x[2,3]
   + 0.0065512103889517 x[2,4] + 0.0531387694290937 x[2,5]
   + 0.0844472152072613 x[2,6] + 0.00250425300351863 x[2,7]
   + 8.6645040628070889e-04 x[2,8] + 0.0782446982744957 x[2,9]
   + 0.1052737243631061 x[2,10] + 0.00334957047306079 x[2,11]
   + 0.0932068174853919 x[2,12] + 0.067572565221526 x[2,13]
   + 0.00271558237090417 x[2,14] + 0.0797768361880409 x[2,15]
   + 0.0500005283234185 x[2,16] + 0.0698549223892898 x[2,17]
   + 0.0367290440516066 x[2,18] + 0.0178678980124473 x[2,19]
   + 0.0511100075021925 x[2,20] >= 0
 findWorstP[2,3]: z + 0.0633988102156616 cashProportion[2]
   - 0.0633988102156616 cashProportion[3] + 0.0459958368114625 x[2,1]
   + 8.45317e-05 x[2,2] + 0.0873107281353353 x[2,3]
   + 0.0065512103889517 x[2,4] + 0.0531387694290937 x[2,5]
   + 0.0844472152072613 x[2,6] + 0.00250425300351863 x[2,7]
   + 8.6645040628070889e-04 x[2,8] + 0.0782446982744957 x[2,9]
   + 0.1052737243631061 x[2,10] + 0.00334957047306079 x[2,11]
   + 0.0932068174853919 x[2,12] + 0.067572565221526 x[2,13]
   + 0.00271558237090417 x[2,14] + 0.0797768361880409 x[2,15]
   + 0.0500005283234185 x[2,16] + 0.0698549223892898 x[2,17]
   + 0.0367290440516066 x[2,18] + 0.0178678980124473 x[2,19]
   + 0.0511100075021925 x[2,20] - 0.0459958368114625 x[3,1]
   - 8.45317e-05 x[3,2] - 0.0873107281353353 x[3,3]
   - 0.0065512103889517 x[3,4] - 0.0531387694290937 x[3,5]
   - 0.0844472152072613 x[3,6] - 0.00250425300351863 x[3,7]
   - 8.6645040628070889e-04 x[3,8] - 0.0782446982744957 x[3,9]
   - 0.1052737243631061 x[3,10] - 0.00334957047306079 x[3,11]
   - 0.0932068174853919 x[3,12] - 0.067572565221526 x[3,13]
   - 0.00271558237090417 x[3,14] - 0.0797768361880409 x[3,15]
   - 0.0500005283234185 x[3,16] - 0.0698549223892898 x[3,17]
   - 0.0367290440516066 x[3,18] - 0.0178678980124473 x[3,19]
   - 0.0511100075021925 x[3,20] >= 0
 findWorstP[3,1]: z - 0.0481881264456438 cashProportion[1]
   + 0.0481881264456438 cashProportion[3] - 0.0637127345155487 x[1,1]
   - 0.0208734901053714 x[1,2] - 0.0385264070932922 x[1,3]
   - 0.0536414160884092 x[1,4] - 0.0766512464662041 x[1,5]
   - 0.0194599717296325 x[1,6] - 0.0350407992803907 x[1,7]
   - 0.0196768182986379 x[1,8] - 0.0725472243639167 x[1,9]
   - 0.0461401310717039 x[1,10] - 0.045545810845541 x[1,11]
   - 0.0189218709843228 x[1,12] - 0.045585967617579 x[1,13]
   - 0.0599460292983809 x[1,14] - 0.0752296967360576 x[1,15]
   - 0.0726998200976613 x[1,16] - 0.0570145849396042 x[1,17]
   - 0.0342135697764071 x[1,18] - 0.0595203675147777 x[1,19]
   - 0.0368639167309175 x[1,20] + 0.0637127345155487 x[3,1]
   + 0.0208734901053714 x[3,2] + 0.0385264070932922 x[3,3]
   + 0.0536414160884092 x[3,4] + 0.0766512464662041 x[3,5]
   + 0.0194599717296325 x[3,6] + 0.0350407992803907 x[3,7]
   + 0.0196768182986379 x[3,8] + 0.0725472243639167 x[3,9]
   + 0.0461401310717039 x[3,10] + 0.045545810845541 x[3,11]
   + 0.0189218709843228 x[3,12] + 0.045585967617579 x[3,13]
   + 0.0599460292983809 x[3,14] + 0.0752296967360576 x[3,15]
   + 0.0726998200976613 x[3,16] + 0.0570145849396042 x[3,17]
   + 0.0342135697764071 x[3,18] + 0.0595203675147777 x[3,19]
   + 0.0368639167309175 x[3,20] >= 0
 findWorstP[3,2]: z - 0.0481881264456438 cashProportion[2]
   + 0.0481881264456438 cashProportion[3] - 0.0637127345155487 x[2,1]
   - 0.0208734901053714 x[2,2] - 0.0385264070932922 x[2,3]
   - 0.0536414160884092 x[2,4] - 0.0766512464662041 x[2,5]
   - 0.0194599717296325 x[2,6] - 0.0350407992803907 x[2,7]
   - 0.0196768182986379 x[2,8] - 0.0725472243639167 x[2,9]
   - 0.0461401310717039 x[2,10] - 0.045545810845541 x[2,11]
   - 0.0189218709843228 x[2,12] - 0.045585967617579 x[2,13]
   - 0.0599460292983809 x[2,14] - 0.0752296967360576 x[2,15]
   - 0.0726998200976613 x[2,16] - 0.0570145849396042 x[2,17]
   - 0.0342135697764071 x[2,18] - 0.0595203675147777 x[2,19]
   - 0.0368639167309175 x[2,20] + 0.0637127345155487 x[3,1]
   + 0.0208734901053714 x[3,2] + 0.0385264070932922 x[3,3]
   + 0.0536414160884092 x[3,4] + 0.0766512464662041 x[3,5]
   + 0.0194599717296325 x[3,6] + 0.0350407992803907 x[3,7]
   + 0.0196768182986379 x[3,8] + 0.0725472243639167 x[3,9]
   + 0.0461401310717039 x[3,10] + 0.045545810845541 x[3,11]
   + 0.0189218709843228 x[3,12] + 0.045585967617579 x[3,13]
   + 0.0599460292983809 x[3,14] + 0.0752296967360576 x[3,15]
   + 0.0726998200976613 x[3,16] + 0.0570145849396042 x[3,17]
   + 0.0342135697764071 x[3,18] + 0.0595203675147777 x[3,19]
   + 0.0368639167309175 x[3,20] >= 0
Bounds
 z <= 1
 -infinity <= cashProportion[1] <= 1
 -infinity <= cashProportion[2] <= 1
 -infinity <= cashProportion[3] <= 1
Binaries
 x[1,1] x[1,2] x[1,3] x[1,4] x[1,5] x[1,6] x[1,7] x[1,8] x[1,9] x[1,10]
 x[1,11] x[1,12] x[1,13] x[1,14] x[1,15] x[1,16] x[1,17] x[1,18] x[1,19]
 x[1,20] x[2,1] x[2,2] x[2,3] x[2,4] x[2,5] x[2,6] x[2,7] x[2,8] x[2,9]
 x[2,10] x[2,11] x[2,12] x[2,13] x[2,14] x[2,15] x[2,16] x[2,17] x[2,18]
 x[2,19] x[2,20] x[3,1] x[3,2] x[3,3] x[3,4] x[3,5] x[3,6] x[3,7] x[3,8]
 x[3,9] x[3,10] x[3,11] x[3,12] x[3,13] x[3,14] x[3,15] x[3,16] x[3,17]
 x[3,18] x[3,19] x[3,20]
End
