data/mps_files/q3/60_7.mps
NAME foo
ROWS
 N  OBJ
 E  allocateEach[1]
 E  allocateEach[2]
 E  allocateEach[3]
 E  allocateEach[4]
 E  allocateEach[5]
 E  allocateEach[6]
 E  allocateEach[7]
 E  allocateEach[8]
 E  allocateEach[9]
 E  allocateEach[10]
 E  allocateEach[11]
 E  allocateEach[12]
 E  allocateEach[13]
 E  allocateEach[14]
 E  allocateEach[15]
 E  allocateEach[16]
 E  allocateEach[17]
 E  allocateEach[18]
 E  allocateEach[19]
 E  allocateEach[20]
 E  allocateAllCash
 G  findWorstP[1,2]
 G  findWorstP[1,3]
 G  findWorstP[2,1]
 G  findWorstP[2,3]
 G  findWorstP[3,1]
 G  findWorstP[3,2]
COLUMNS
    z         OBJ       1
    z         findWorstP[1,2]  1
    z         findWorstP[1,3]  1
    z         findWorstP[2,1]  1
    z         findWorstP[2,3]  1
    z         findWorstP[3,1]  1
    z         findWorstP[3,2]  1
    cashProportion[1]  allocateAllCash  1
    cashProportion[1]  findWorstP[1,2]  5.9141851731377724e-02
    cashProportion[1]  findWorstP[1,3]  5.9141851731377724e-02
    cashProportion[1]  findWorstP[2,1]  -6.3398810215661627e-02
    cashProportion[1]  findWorstP[3,1]  -4.8188126445643804e-02
    cashProportion[2]  allocateAllCash  1
    cashProportion[2]  findWorstP[1,2]  -5.9141851731377724e-02
    cashProportion[2]  findWorstP[2,1]  6.3398810215661627e-02
    cashProportion[2]  findWorstP[2,3]  6.3398810215661627e-02
    cashProportion[2]  findWorstP[3,2]  -4.8188126445643804e-02
    cashProportion[3]  allocateAllCash  1
    cashProportion[3]  findWorstP[1,3]  -5.9141851731377724e-02
    cashProportion[3]  findWorstP[2,3]  -6.3398810215661627e-02
    cashProportion[3]  findWorstP[3,1]  4.8188126445643804e-02
    cashProportion[3]  findWorstP[3,2]  4.8188126445643804e-02
    MARKER    'MARKER'                 'INTORG'
    x[1,1]    allocateEach[1]  1
    x[1,1]    findWorstP[1,2]  3.1019901233107609e-02
    x[1,1]    findWorstP[1,3]  3.1019901233107609e-02
    x[1,1]    findWorstP[2,1]  -4.5995836811462507e-02
    x[1,1]    findWorstP[3,1]  -6.3712734515548708e-02
    x[1,2]    allocateEach[2]  1
    x[1,2]    findWorstP[1,2]  9.7091206592345089e-03
    x[1,2]    findWorstP[1,3]  9.7091206592345089e-03
    x[1,2]    findWorstP[2,1]  -8.45317469542155e-05
    x[1,2]    findWorstP[3,1]  -2.0873490105371373e-02
    x[1,3]    allocateEach[3]  1
    x[1,3]    findWorstP[1,2]  1.9398527367891889e-02
    x[1,3]    findWorstP[1,3]  1.9398527367891889e-02
    x[1,3]    findWorstP[2,1]  -8.7310728135335330e-02
    x[1,3]    findWorstP[3,1]  -3.8526407093292220e-02
    x[1,4]    allocateEach[4]  1
    x[1,4]    findWorstP[1,2]  8.2325457610077785e-02
    x[1,4]    findWorstP[1,3]  8.2325457610077785e-02
    x[1,4]    findWorstP[2,1]  -6.5512103889517007e-03
    x[1,4]    findWorstP[3,1]  -5.3641416088409159e-02
    x[1,5]    allocateEach[5]  1
    x[1,5]    findWorstP[1,2]  9.5967511409448911e-02
    x[1,5]    findWorstP[1,3]  9.5967511409448911e-02
    x[1,5]    findWorstP[2,1]  -5.3138769429093714e-02
    x[1,5]    findWorstP[3,1]  -7.6651246466204068e-02
    x[1,6]    allocateEach[6]  1
    x[1,6]    findWorstP[1,2]  8.2926733102680117e-02
    x[1,6]    findWorstP[1,3]  8.2926733102680117e-02
    x[1,6]    findWorstP[2,1]  -8.4447215207261284e-02
    x[1,6]    findWorstP[3,1]  -1.9459971729632486e-02
    x[1,7]    allocateEach[7]  1
    x[1,7]    findWorstP[1,2]  5.2291253905826458e-02
    x[1,7]    findWorstP[1,3]  5.2291253905826458e-02
    x[1,7]    findWorstP[2,1]  -2.5042530035186339e-03
    x[1,7]    findWorstP[3,1]  -3.5040799280390653e-02
    x[1,8]    allocateEach[8]  1
    x[1,8]    findWorstP[1,2]  0.0785699500251353
    x[1,8]    findWorstP[1,3]  0.0785699500251353
    x[1,8]    findWorstP[2,1]  -8.6645040628070889e-04
    x[1,8]    findWorstP[3,1]  -1.9676818298637884e-02
    x[1,9]    allocateEach[9]  1
    x[1,9]    findWorstP[1,2]  4.1497865964850028e-03
    x[1,9]    findWorstP[1,3]  4.1497865964850028e-03
    x[1,9]    findWorstP[2,1]  -7.8244698274495719e-02
    x[1,9]    findWorstP[3,1]  -7.2547224363916737e-02
    x[1,10]   allocateEach[10]  1
    x[1,10]   findWorstP[1,2]  4.8654030024346734e-02
    x[1,10]   findWorstP[1,3]  4.8654030024346734e-02
    x[1,10]   findWorstP[2,1]  -1.0527372436310611e-01
    x[1,10]   findWorstP[3,1]  -4.6140131071703935e-02
    x[1,11]   allocateEach[11]  1
    x[1,11]   findWorstP[1,2]  6.8318695725029827e-02
    x[1,11]   findWorstP[1,3]  6.8318695725029827e-02
    x[1,11]   findWorstP[2,1]  -3.3495704730607890e-03
    x[1,11]   findWorstP[3,1]  -0.045545810845541
    x[1,12]   allocateEach[12]  1
    x[1,12]   findWorstP[1,2]  3.8511202452415454e-02
    x[1,12]   findWorstP[1,3]  3.8511202452415454e-02
    x[1,12]   findWorstP[2,1]  -9.3206817485391863e-02
    x[1,12]   findWorstP[3,1]  -1.8921870984322797e-02
    x[1,13]   allocateEach[13]  1
    x[1,13]   findWorstP[1,2]  3.7850785108081734e-03
    x[1,13]   findWorstP[1,3]  3.7850785108081734e-03
    x[1,13]   findWorstP[2,1]  -6.7572565221526007e-02
    x[1,13]   findWorstP[3,1]  -4.5585967617579035e-02
    x[1,14]   allocateEach[14]  1
    x[1,14]   findWorstP[1,2]  0.000611132467890903
    x[1,14]   findWorstP[1,3]  0.000611132467890903
    x[1,14]   findWorstP[2,1]  -2.7155823709041726e-03
    x[1,14]   findWorstP[3,1]  -5.9946029298380880e-02
    x[1,15]   allocateEach[15]  1
    x[1,15]   findWorstP[1,2]  9.1571300430749823e-03
    x[1,15]   findWorstP[1,3]  9.1571300430749823e-03
    x[1,15]   findWorstP[2,1]  -7.9776836188040864e-02
    x[1,15]   findWorstP[3,1]  -7.5229696736057575e-02
    x[1,16]   allocateEach[16]  1
    x[1,16]   findWorstP[1,2]  9.3621551290770919e-02
    x[1,16]   findWorstP[1,3]  9.3621551290770919e-02
    x[1,16]   findWorstP[2,1]  -5.0000528323418461e-02
    x[1,16]   findWorstP[3,1]  -7.2699820097661280e-02
    x[1,17]   allocateEach[17]  1
    x[1,17]   findWorstP[1,2]  1.6559718484785761e-02
    x[1,17]   findWorstP[1,3]  1.6559718484785761e-02
    x[1,17]   findWorstP[2,1]  -6.9854922389289836e-02
    x[1,17]   findWorstP[3,1]  -5.7014584939604221e-02
    x[1,18]   allocateEach[18]  1
    x[1,18]   findWorstP[1,2]  7.1472927817369969e-02
    x[1,18]   findWorstP[1,3]  7.1472927817369969e-02
    x[1,18]   findWorstP[2,1]  -3.6729044051606631e-02
    x[1,18]   findWorstP[3,1]  -0.0342135697764071
    x[1,19]   allocateEach[19]  1
    x[1,19]   findWorstP[1,2]  4.9304590393391884e-02
    x[1,19]   findWorstP[1,3]  4.9304590393391884e-02
    x[1,19]   findWorstP[2,1]  -0.0178678980124473
    x[1,19]   findWorstP[3,1]  -0.0595203675147777
    x[1,20]   allocateEach[20]  1
    x[1,20]   findWorstP[1,2]  8.4503849148850188e-02
    x[1,20]   findWorstP[1,3]  8.4503849148850188e-02
    x[1,20]   findWorstP[2,1]  -5.1110007502192543e-02
    x[1,20]   findWorstP[3,1]  -3.6863916730917504e-02
    x[2,1]    allocateEach[1]  1
    x[2,1]    findWorstP[1,2]  -3.1019901233107609e-02
    x[2,1]    findWorstP[2,1]  4.5995836811462507e-02
    x[2,1]    findWorstP[2,3]  4.5995836811462507e-02
    x[2,1]    findWorstP[3,2]  -6.3712734515548708e-02
    x[2,2]    allocateEach[2]  1
    x[2,2]    findWorstP[1,2]  -9.7091206592345089e-03
    x[2,2]    findWorstP[2,1]  8.45317469542155e-05
    x[2,2]    findWorstP[2,3]  8.45317469542155e-05
    x[2,2]    findWorstP[3,2]  -2.0873490105371373e-02
    x[2,3]    allocateEach[3]  1
    x[2,3]    findWorstP[1,2]  -1.9398527367891889e-02
    x[2,3]    findWorstP[2,1]  8.7310728135335330e-02
    x[2,3]    findWorstP[2,3]  8.7310728135335330e-02
    x[2,3]    findWorstP[3,2]  -3.8526407093292220e-02
    x[2,4]    allocateEach[4]  1
    x[2,4]    findWorstP[1,2]  -8.2325457610077785e-02
    x[2,4]    findWorstP[2,1]  6.5512103889517007e-03
    x[2,4]    findWorstP[2,3]  6.5512103889517007e-03
    x[2,4]    findWorstP[3,2]  -5.3641416088409159e-02
    x[2,5]    allocateEach[5]  1
    x[2,5]    findWorstP[1,2]  -9.5967511409448911e-02
    x[2,5]    findWorstP[2,1]  5.3138769429093714e-02
    x[2,5]    findWorstP[2,3]  5.3138769429093714e-02
    x[2,5]    findWorstP[3,2]  -7.6651246466204068e-02
    x[2,6]    allocateEach[6]  1
    x[2,6]    findWorstP[1,2]  -8.2926733102680117e-02
    x[2,6]    findWorstP[2,1]  8.4447215207261284e-02
    x[2,6]    findWorstP[2,3]  8.4447215207261284e-02
    x[2,6]    findWorstP[3,2]  -1.9459971729632486e-02
    x[2,7]    allocateEach[7]  1
    x[2,7]    findWorstP[1,2]  -5.2291253905826458e-02
    x[2,7]    findWorstP[2,1]  2.5042530035186339e-03
    x[2,7]    findWorstP[2,3]  2.5042530035186339e-03
    x[2,7]    findWorstP[3,2]  -3.5040799280390653e-02
    x[2,8]    allocateEach[8]  1
    x[2,8]    findWorstP[1,2]  -0.0785699500251353
    x[2,8]    findWorstP[2,1]  8.6645040628070889e-04
    x[2,8]    findWorstP[2,3]  8.6645040628070889e-04
    x[2,8]    findWorstP[3,2]  -1.9676818298637884e-02
    x[2,9]    allocateEach[9]  1
    x[2,9]    findWorstP[1,2]  -4.1497865964850028e-03
    x[2,9]    findWorstP[2,1]  7.8244698274495719e-02
    x[2,9]    findWorstP[2,3]  7.8244698274495719e-02
    x[2,9]    findWorstP[3,2]  -7.2547224363916737e-02
    x[2,10]   allocateEach[10]  1
    x[2,10]   findWorstP[1,2]  -4.8654030024346734e-02
    x[2,10]   findWorstP[2,1]  1.0527372436310611e-01
    x[2,10]   findWorstP[2,3]  1.0527372436310611e-01
    x[2,10]   findWorstP[3,2]  -4.6140131071703935e-02
    x[2,11]   allocateEach[11]  1
    x[2,11]   findWorstP[1,2]  -6.8318695725029827e-02
    x[2,11]   findWorstP[2,1]  3.3495704730607890e-03
    x[2,11]   findWorstP[2,3]  3.3495704730607890e-03
    x[2,11]   findWorstP[3,2]  -0.045545810845541
    x[2,12]   allocateEach[12]  1
    x[2,12]   findWorstP[1,2]  -3.8511202452415454e-02
    x[2,12]   findWorstP[2,1]  9.3206817485391863e-02
    x[2,12]   findWorstP[2,3]  9.3206817485391863e-02
    x[2,12]   findWorstP[3,2]  -1.8921870984322797e-02
    x[2,13]   allocateEach[13]  1
    x[2,13]   findWorstP[1,2]  -3.7850785108081734e-03
    x[2,13]   findWorstP[2,1]  6.7572565221526007e-02
    x[2,13]   findWorstP[2,3]  6.7572565221526007e-02
    x[2,13]   findWorstP[3,2]  -4.5585967617579035e-02
    x[2,14]   allocateEach[14]  1
    x[2,14]   findWorstP[1,2]  -0.000611132467890903
    x[2,14]   findWorstP[2,1]  2.7155823709041726e-03
    x[2,14]   findWorstP[2,3]  2.7155823709041726e-03
    x[2,14]   findWorstP[3,2]  -5.9946029298380880e-02
    x[2,15]   allocateEach[15]  1
    x[2,15]   findWorstP[1,2]  -9.1571300430749823e-03
    x[2,15]   findWorstP[2,1]  7.9776836188040864e-02
    x[2,15]   findWorstP[2,3]  7.9776836188040864e-02
    x[2,15]   findWorstP[3,2]  -7.5229696736057575e-02
    x[2,16]   allocateEach[16]  1
    x[2,16]   findWorstP[1,2]  -9.3621551290770919e-02
    x[2,16]   findWorstP[2,1]  5.0000528323418461e-02
    x[2,16]   findWorstP[2,3]  5.0000528323418461e-02
    x[2,16]   findWorstP[3,2]  -7.2699820097661280e-02
    x[2,17]   allocateEach[17]  1
    x[2,17]   findWorstP[1,2]  -1.6559718484785761e-02
    x[2,17]   findWorstP[2,1]  6.9854922389289836e-02
    x[2,17]   findWorstP[2,3]  6.9854922389289836e-02
    x[2,17]   findWorstP[3,2]  -5.7014584939604221e-02
    x[2,18]   allocateEach[18]  1
    x[2,18]   findWorstP[1,2]  -7.1472927817369969e-02
    x[2,18]   findWorstP[2,1]  3.6729044051606631e-02
    x[2,18]   findWorstP[2,3]  3.6729044051606631e-02
    x[2,18]   findWorstP[3,2]  -0.0342135697764071
    x[2,19]   allocateEach[19]  1
    x[2,19]   findWorstP[1,2]  -4.9304590393391884e-02
    x[2,19]   findWorstP[2,1]  0.0178678980124473
    x[2,19]   findWorstP[2,3]  0.0178678980124473
    x[2,19]   findWorstP[3,2]  -0.0595203675147777
    x[2,20]   allocateEach[20]  1
    x[2,20]   findWorstP[1,2]  -8.4503849148850188e-02
    x[2,20]   findWorstP[2,1]  5.1110007502192543e-02
    x[2,20]   findWorstP[2,3]  5.1110007502192543e-02
    x[2,20]   findWorstP[3,2]  -3.6863916730917504e-02
    x[3,1]    allocateEach[1]  1
    x[3,1]    findWorstP[1,3]  -3.1019901233107609e-02
    x[3,1]    findWorstP[2,3]  -4.5995836811462507e-02
    x[3,1]    findWorstP[3,1]  6.3712734515548708e-02
    x[3,1]    findWorstP[3,2]  6.3712734515548708e-02
    x[3,2]    allocateEach[2]  1
    x[3,2]    findWorstP[1,3]  -9.7091206592345089e-03
    x[3,2]    findWorstP[2,3]  -8.45317469542155e-05
    x[3,2]    findWorstP[3,1]  2.0873490105371373e-02
    x[3,2]    findWorstP[3,2]  2.0873490105371373e-02
    x[3,3]    allocateEach[3]  1
    x[3,3]    findWorstP[1,3]  -1.9398527367891889e-02
    x[3,3]    findWorstP[2,3]  -8.7310728135335330e-02
    x[3,3]    findWorstP[3,1]  3.8526407093292220e-02
    x[3,3]    findWorstP[3,2]  3.8526407093292220e-02
    x[3,4]    allocateEach[4]  1
    x[3,4]    findWorstP[1,3]  -8.2325457610077785e-02
    x[3,4]    findWorstP[2,3]  -6.5512103889517007e-03
    x[3,4]    findWorstP[3,1]  5.3641416088409159e-02
    x[3,4]    findWorstP[3,2]  5.3641416088409159e-02
    x[3,5]    allocateEach[5]  1
    x[3,5]    findWorstP[1,3]  -9.5967511409448911e-02
    x[3,5]    findWorstP[2,3]  -5.3138769429093714e-02
    x[3,5]    findWorstP[3,1]  7.6651246466204068e-02
    x[3,5]    findWorstP[3,2]  7.6651246466204068e-02
    x[3,6]    allocateEach[6]  1
    x[3,6]    findWorstP[1,3]  -8.2926733102680117e-02
    x[3,6]    findWorstP[2,3]  -8.4447215207261284e-02
    x[3,6]    findWorstP[3,1]  1.9459971729632486e-02
    x[3,6]    findWorstP[3,2]  1.9459971729632486e-02
    x[3,7]    allocateEach[7]  1
    x[3,7]    findWorstP[1,3]  -5.2291253905826458e-02
    x[3,7]    findWorstP[2,3]  -2.5042530035186339e-03
    x[3,7]    findWorstP[3,1]  3.5040799280390653e-02
    x[3,7]    findWorstP[3,2]  3.5040799280390653e-02
    x[3,8]    allocateEach[8]  1
    x[3,8]    findWorstP[1,3]  -0.0785699500251353
    x[3,8]    findWorstP[2,3]  -8.6645040628070889e-04
    x[3,8]    findWorstP[3,1]  1.9676818298637884e-02
    x[3,8]    findWorstP[3,2]  1.9676818298637884e-02
    x[3,9]    allocateEach[9]  1
    x[3,9]    findWorstP[1,3]  -4.1497865964850028e-03
    x[3,9]    findWorstP[2,3]  -7.8244698274495719e-02
    x[3,9]    findWorstP[3,1]  7.2547224363916737e-02
    x[3,9]    findWorstP[3,2]  7.2547224363916737e-02
    x[3,10]   allocateEach[10]  1
    x[3,10]   findWorstP[1,3]  -4.8654030024346734e-02
    x[3,10]   findWorstP[2,3]  -1.0527372436310611e-01
    x[3,10]   findWorstP[3,1]  4.6140131071703935e-02
    x[3,10]   findWorstP[3,2]  4.6140131071703935e-02
    x[3,11]   allocateEach[11]  1
    x[3,11]   findWorstP[1,3]  -6.8318695725029827e-02
    x[3,11]   findWorstP[2,3]  -3.3495704730607890e-03
    x[3,11]   findWorstP[3,1]  0.045545810845541
    x[3,11]   findWorstP[3,2]  0.045545810845541
    x[3,12]   allocateEach[12]  1
    x[3,12]   findWorstP[1,3]  -3.8511202452415454e-02
    x[3,12]   findWorstP[2,3]  -9.3206817485391863e-02
    x[3,12]   findWorstP[3,1]  1.8921870984322797e-02
    x[3,12]   findWorstP[3,2]  1.8921870984322797e-02
    x[3,13]   allocateEach[13]  1
    x[3,13]   findWorstP[1,3]  -3.7850785108081734e-03
    x[3,13]   findWorstP[2,3]  -6.7572565221526007e-02
    x[3,13]   findWorstP[3,1]  4.5585967617579035e-02
    x[3,13]   findWorstP[3,2]  4.5585967617579035e-02
    x[3,14]   allocateEach[14]  1
    x[3,14]   findWorstP[1,3]  -0.000611132467890903
    x[3,14]   findWorstP[2,3]  -2.7155823709041726e-03
    x[3,14]   findWorstP[3,1]  5.9946029298380880e-02
    x[3,14]   findWorstP[3,2]  5.9946029298380880e-02
    x[3,15]   allocateEach[15]  1
    x[3,15]   findWorstP[1,3]  -9.1571300430749823e-03
    x[3,15]   findWorstP[2,3]  -7.9776836188040864e-02
    x[3,15]   findWorstP[3,1]  7.5229696736057575e-02
    x[3,15]   findWorstP[3,2]  7.5229696736057575e-02
    x[3,16]   allocateEach[16]  1
    x[3,16]   findWorstP[1,3]  -9.3621551290770919e-02
    x[3,16]   findWorstP[2,3]  -5.0000528323418461e-02
    x[3,16]   findWorstP[3,1]  7.2699820097661280e-02
    x[3,16]   findWorstP[3,2]  7.2699820097661280e-02
    x[3,17]   allocateEach[17]  1
    x[3,17]   findWorstP[1,3]  -1.6559718484785761e-02
    x[3,17]   findWorstP[2,3]  -6.9854922389289836e-02
    x[3,17]   findWorstP[3,1]  5.7014584939604221e-02
    x[3,17]   findWorstP[3,2]  5.7014584939604221e-02
    x[3,18]   allocateEach[18]  1
    x[3,18]   findWorstP[1,3]  -7.1472927817369969e-02
    x[3,18]   findWorstP[2,3]  -3.6729044051606631e-02
    x[3,18]   findWorstP[3,1]  0.0342135697764071
    x[3,18]   findWorstP[3,2]  0.0342135697764071
    x[3,19]   allocateEach[19]  1
    x[3,19]   findWorstP[1,3]  -4.9304590393391884e-02
    x[3,19]   findWorstP[2,3]  -0.0178678980124473
    x[3,19]   findWorstP[3,1]  0.0595203675147777
    x[3,19]   findWorstP[3,2]  0.0595203675147777
    x[3,20]   allocateEach[20]  1
    x[3,20]   findWorstP[1,3]  -8.4503849148850188e-02
    x[3,20]   findWorstP[2,3]  -5.1110007502192543e-02
    x[3,20]   findWorstP[3,1]  3.6863916730917504e-02
    x[3,20]   findWorstP[3,2]  3.6863916730917504e-02
    MARKER    'MARKER'                 'INTEND'
RHS
    RHS1      allocateEach[1]  1
    RHS1      allocateEach[2]  1
    RHS1      allocateEach[3]  1
    RHS1      allocateEach[4]  1
    RHS1      allocateEach[5]  1
    RHS1      allocateEach[6]  1
    RHS1      allocateEach[7]  1
    RHS1      allocateEach[8]  1
    RHS1      allocateEach[9]  1
    RHS1      allocateEach[10]  1
    RHS1      allocateEach[11]  1
    RHS1      allocateEach[12]  1
    RHS1      allocateEach[13]  1
    RHS1      allocateEach[14]  1
    RHS1      allocateEach[15]  1
    RHS1      allocateEach[16]  1
    RHS1      allocateEach[17]  1
    RHS1      allocateEach[18]  1
    RHS1      allocateEach[19]  1
    RHS1      allocateEach[20]  1
    RHS1      allocateAllCash  1
BOUNDS
 UP BND1      z         1
 MI BND1      cashProportion[1]
 UP BND1      cashProportion[1]  1
 MI BND1      cashProportion[2]
 UP BND1      cashProportion[2]  1
 MI BND1      cashProportion[3]
 UP BND1      cashProportion[3]  1
 BV BND1      x[1,1]  
 BV BND1      x[1,2]  
 BV BND1      x[1,3]  
 BV BND1      x[1,4]  
 BV BND1      x[1,5]  
 BV BND1      x[1,6]  
 BV BND1      x[1,7]  
 BV BND1      x[1,8]  
 BV BND1      x[1,9]  
 BV BND1      x[1,10] 
 BV BND1      x[1,11] 
 BV BND1      x[1,12] 
 BV BND1      x[1,13] 
 BV BND1      x[1,14] 
 BV BND1      x[1,15] 
 BV BND1      x[1,16] 
 BV BND1      x[1,17] 
 BV BND1      x[1,18] 
 BV BND1      x[1,19] 
 BV BND1      x[1,20] 
 BV BND1      x[2,1]  
 BV BND1      x[2,2]  
 BV BND1      x[2,3]  
 BV BND1      x[2,4]  
 BV BND1      x[2,5]  
 BV BND1      x[2,6]  
 BV BND1      x[2,7]  
 BV BND1      x[2,8]  
 BV BND1      x[2,9]  
 BV BND1      x[2,10] 
 BV BND1      x[2,11] 
 BV BND1      x[2,12] 
 BV BND1      x[2,13] 
 BV BND1      x[2,14] 
 BV BND1      x[2,15] 
 BV BND1      x[2,16] 
 BV BND1      x[2,17] 
 BV BND1      x[2,18] 
 BV BND1      x[2,19] 
 BV BND1      x[2,20] 
 BV BND1      x[3,1]  
 BV BND1      x[3,2]  
 BV BND1      x[3,3]  
 BV BND1      x[3,4]  
 BV BND1      x[3,5]  
 BV BND1      x[3,6]  
 BV BND1      x[3,7]  
 BV BND1      x[3,8]  
 BV BND1      x[3,9]  
 BV BND1      x[3,10] 
 BV BND1      x[3,11] 
 BV BND1      x[3,12] 
 BV BND1      x[3,13] 
 BV BND1      x[3,14] 
 BV BND1      x[3,15] 
 BV BND1      x[3,16] 
 BV BND1      x[3,17] 
 BV BND1      x[3,18] 
 BV BND1      x[3,19] 
 BV BND1      x[3,20] 
ENDATA
